array [1..19] of float: x = [0.0, 0.5, 1.0, 1.5, 1.9, 2.5, 3.0, 3.5, 4.0, 4.5, 5.0, 5.5, 6.0, 6.6, 7.0, 7.6, 8.5, 9.0, 10.0];
array [1..19] of float: y = [1.0, 0.9, 0.7, 1.5, 2.0, 2.4, 3.2, 2.0, 2.7, 3.5, 1.0, 4.0, 3.6, 2.7, 5.7, 4.6, 6.0, 6.8, 7.3];
var 0.0..1.7976931348623157e+308: FLOAT____00002 :: is_defined_var :: var_is_introduced;
var 0.0..1.7976931348623157e+308: FLOAT____00003 :: is_defined_var :: var_is_introduced;
var 0.0..1.7976931348623157e+308: FLOAT____00005 :: is_defined_var :: var_is_introduced;
var 0.0..1.7976931348623157e+308: FLOAT____00006 :: is_defined_var :: var_is_introduced;
var 0.0..1.7976931348623157e+308: FLOAT____00008 :: is_defined_var :: var_is_introduced;
var 0.0..1.7976931348623157e+308: FLOAT____00009 :: is_defined_var :: var_is_introduced;
var 0.0..1.7976931348623157e+308: FLOAT____00011 :: is_defined_var :: var_is_introduced;
var 0.0..1.7976931348623157e+308: FLOAT____00012 :: is_defined_var :: var_is_introduced;
var 0.0..1.7976931348623157e+308: FLOAT____00014 :: is_defined_var :: var_is_introduced;
var 0.0..1.7976931348623157e+308: FLOAT____00015 :: is_defined_var :: var_is_introduced;
var 0.0..1.7976931348623157e+308: FLOAT____00017 :: is_defined_var :: var_is_introduced;
var 0.0..1.7976931348623157e+308: FLOAT____00018 :: is_defined_var :: var_is_introduced;
var 0.0..1.7976931348623157e+308: FLOAT____00020 :: is_defined_var :: var_is_introduced;
var 0.0..1.7976931348623157e+308: FLOAT____00021 :: is_defined_var :: var_is_introduced;
var 0.0..1.7976931348623157e+308: FLOAT____00023 :: is_defined_var :: var_is_introduced;
var 0.0..1.7976931348623157e+308: FLOAT____00024 :: is_defined_var :: var_is_introduced;
var 0.0..1.7976931348623157e+308: FLOAT____00026 :: is_defined_var :: var_is_introduced;
var 0.0..1.7976931348623157e+308: FLOAT____00027 :: is_defined_var :: var_is_introduced;
var 0.0..1.7976931348623157e+308: FLOAT____00029 :: is_defined_var :: var_is_introduced;
var 0.0..1.7976931348623157e+308: FLOAT____00030 :: is_defined_var :: var_is_introduced;
var 0.0..1.7976931348623157e+308: FLOAT____00032 :: is_defined_var :: var_is_introduced;
var 0.0..1.7976931348623157e+308: FLOAT____00033 :: is_defined_var :: var_is_introduced;
var 0.0..1.7976931348623157e+308: FLOAT____00035 :: is_defined_var :: var_is_introduced;
var 0.0..1.7976931348623157e+308: FLOAT____00036 :: is_defined_var :: var_is_introduced;
var 0.0..1.7976931348623157e+308: FLOAT____00038 :: is_defined_var :: var_is_introduced;
var 0.0..1.7976931348623157e+308: FLOAT____00039 :: is_defined_var :: var_is_introduced;
var 0.0..1.7976931348623157e+308: FLOAT____00041 :: is_defined_var :: var_is_introduced;
var 0.0..1.7976931348623157e+308: FLOAT____00042 :: is_defined_var :: var_is_introduced;
var 0.0..1.7976931348623157e+308: FLOAT____00044 :: is_defined_var :: var_is_introduced;
var 0.0..1.7976931348623157e+308: FLOAT____00045 :: is_defined_var :: var_is_introduced;
var 0.0..1.7976931348623157e+308: FLOAT____00047 :: is_defined_var :: var_is_introduced;
var 0.0..1.7976931348623157e+308: FLOAT____00048 :: is_defined_var :: var_is_introduced;
var 0.0..1.7976931348623157e+308: FLOAT____00050 :: is_defined_var :: var_is_introduced;
var 0.0..1.7976931348623157e+308: FLOAT____00051 :: is_defined_var :: var_is_introduced;
var 0.0..1.7976931348623157e+308: FLOAT____00053 :: is_defined_var :: var_is_introduced;
var 0.0..1.7976931348623157e+308: FLOAT____00054 :: is_defined_var :: var_is_introduced;
var 0.0..1.7976931348623157e+308: FLOAT____00056 :: is_defined_var :: var_is_introduced;
var 0.0..1.7976931348623157e+308: FLOAT____00057 :: is_defined_var :: var_is_introduced;
var float: a :: output_var;
var float: b :: output_var;
array [1..19] of var float: u;
array [1..19] of var float: v;
var float: z :: output_var;
constraint float_le(0.0, u[1]);
constraint float_le(0.0, u[2]);
constraint float_le(0.0, u[3]);
constraint float_le(0.0, u[4]);
constraint float_le(0.0, u[5]);
constraint float_le(0.0, u[6]);
constraint float_le(0.0, u[7]);
constraint float_le(0.0, u[8]);
constraint float_le(0.0, u[9]);
constraint float_le(0.0, u[10]);
constraint float_le(0.0, u[11]);
constraint float_le(0.0, u[12]);
constraint float_le(0.0, u[13]);
constraint float_le(0.0, u[14]);
constraint float_le(0.0, u[15]);
constraint float_le(0.0, u[16]);
constraint float_le(0.0, u[17]);
constraint float_le(0.0, u[18]);
constraint float_le(0.0, u[19]);
constraint float_le(0.0, v[1]);
constraint float_le(0.0, v[2]);
constraint float_le(0.0, v[3]);
constraint float_le(0.0, v[4]);
constraint float_le(0.0, v[5]);
constraint float_le(0.0, v[6]);
constraint float_le(0.0, v[7]);
constraint float_le(0.0, v[8]);
constraint float_le(0.0, v[9]);
constraint float_le(0.0, v[10]);
constraint float_le(0.0, v[11]);
constraint float_le(0.0, v[12]);
constraint float_le(0.0, v[13]);
constraint float_le(0.0, v[14]);
constraint float_le(0.0, v[15]);
constraint float_le(0.0, v[16]);
constraint float_le(0.0, v[17]);
constraint float_le(0.0, v[18]);
constraint float_le(0.0, v[19]);
constraint float_lin_eq([-1.0, 1.0, 1.0, -1.0], [1.0, a, u[1], v[1]], 0.0);
constraint float_lin_eq([-1.0, 1.0, 0.5, 1.0, -1.0], [0.9, a, b, u[2], v[2]], 0.0);
constraint float_lin_eq([-1.0, 1.0, 1.0, 1.0, -1.0], [0.7, a, b, u[3], v[3]], 0.0);
constraint float_lin_eq([-1.0, 1.0, 1.5, 1.0, -1.0], [1.5, a, b, u[4], v[4]], 0.0);
constraint float_lin_eq([-1.0, 1.0, 1.9, 1.0, -1.0], [2.0, a, b, u[5], v[5]], 0.0);
constraint float_lin_eq([-1.0, 1.0, 2.5, 1.0, -1.0], [2.4, a, b, u[6], v[6]], 0.0);
constraint float_lin_eq([-1.0, 1.0, 3.0, 1.0, -1.0], [3.2, a, b, u[7], v[7]], 0.0);
constraint float_lin_eq([-1.0, 1.0, 3.5, 1.0, -1.0], [2.0, a, b, u[8], v[8]], 0.0);
constraint float_lin_eq([-1.0, 1.0, 4.0, 1.0, -1.0], [2.7, a, b, u[9], v[9]], 0.0);
constraint float_lin_eq([-1.0, 1.0, 4.5, 1.0, -1.0], [3.5, a, b, u[10], v[10]], 0.0);
constraint float_lin_eq([-1.0, 1.0, 5.0, 1.0, -1.0], [1.0, a, b, u[11], v[11]], 0.0);
constraint float_lin_eq([-1.0, 1.0, 5.5, 1.0, -1.0], [4.0, a, b, u[12], v[12]], 0.0);
constraint float_lin_eq([-1.0, 1.0, 6.0, 1.0, -1.0], [3.6, a, b, u[13], v[13]], 0.0);
constraint float_lin_eq([-1.0, 1.0, 6.6, 1.0, -1.0], [2.7, a, b, u[14], v[14]], 0.0);
constraint float_lin_eq([-1.0, 1.0, 7.0, 1.0, -1.0], [5.7, a, b, u[15], v[15]], 0.0);
constraint float_lin_eq([-1.0, 1.0, 7.6, 1.0, -1.0], [4.6, a, b, u[16], v[16]], 0.0);
constraint float_lin_eq([-1.0, 1.0, 8.5, 1.0, -1.0], [6.0, a, b, u[17], v[17]], 0.0);
constraint float_lin_eq([-1.0, 1.0, 9.0, 1.0, -1.0], [6.8, a, b, u[18], v[18]], 0.0);
constraint float_lin_eq([-1.0, 1.0, 10.0, 1.0, -1.0], [7.3, a, b, u[19], v[19]], 0.0);
constraint float_plus(FLOAT____00002, u[1], z) :: defines_var(FLOAT____00002);
constraint float_plus(FLOAT____00005, u[2], z) :: defines_var(FLOAT____00005);
constraint float_plus(FLOAT____00008, u[3], z) :: defines_var(FLOAT____00008);
constraint float_plus(FLOAT____00011, u[4], z) :: defines_var(FLOAT____00011);
constraint float_plus(FLOAT____00014, u[5], z) :: defines_var(FLOAT____00014);
constraint float_plus(FLOAT____00017, u[6], z) :: defines_var(FLOAT____00017);
constraint float_plus(FLOAT____00020, u[7], z) :: defines_var(FLOAT____00020);
constraint float_plus(FLOAT____00023, u[8], z) :: defines_var(FLOAT____00023);
constraint float_plus(FLOAT____00026, u[9], z) :: defines_var(FLOAT____00026);
constraint float_plus(FLOAT____00029, u[10], z) :: defines_var(FLOAT____00029);
constraint float_plus(FLOAT____00032, u[11], z) :: defines_var(FLOAT____00032);
constraint float_plus(FLOAT____00035, u[12], z) :: defines_var(FLOAT____00035);
constraint float_plus(FLOAT____00038, u[13], z) :: defines_var(FLOAT____00038);
constraint float_plus(FLOAT____00041, u[14], z) :: defines_var(FLOAT____00041);
constraint float_plus(FLOAT____00044, u[15], z) :: defines_var(FLOAT____00044);
constraint float_plus(FLOAT____00047, u[16], z) :: defines_var(FLOAT____00047);
constraint float_plus(FLOAT____00050, u[17], z) :: defines_var(FLOAT____00050);
constraint float_plus(FLOAT____00053, u[18], z) :: defines_var(FLOAT____00053);
constraint float_plus(FLOAT____00056, u[19], z) :: defines_var(FLOAT____00056);
constraint float_plus(FLOAT____00003, v[1], z) :: defines_var(FLOAT____00003);
constraint float_plus(FLOAT____00006, v[2], z) :: defines_var(FLOAT____00006);
constraint float_plus(FLOAT____00009, v[3], z) :: defines_var(FLOAT____00009);
constraint float_plus(FLOAT____00012, v[4], z) :: defines_var(FLOAT____00012);
constraint float_plus(FLOAT____00015, v[5], z) :: defines_var(FLOAT____00015);
constraint float_plus(FLOAT____00018, v[6], z) :: defines_var(FLOAT____00018);
constraint float_plus(FLOAT____00021, v[7], z) :: defines_var(FLOAT____00021);
constraint float_plus(FLOAT____00024, v[8], z) :: defines_var(FLOAT____00024);
constraint float_plus(FLOAT____00027, v[9], z) :: defines_var(FLOAT____00027);
constraint float_plus(FLOAT____00030, v[10], z) :: defines_var(FLOAT____00030);
constraint float_plus(FLOAT____00033, v[11], z) :: defines_var(FLOAT____00033);
constraint float_plus(FLOAT____00036, v[12], z) :: defines_var(FLOAT____00036);
constraint float_plus(FLOAT____00039, v[13], z) :: defines_var(FLOAT____00039);
constraint float_plus(FLOAT____00042, v[14], z) :: defines_var(FLOAT____00042);
constraint float_plus(FLOAT____00045, v[15], z) :: defines_var(FLOAT____00045);
constraint float_plus(FLOAT____00048, v[16], z) :: defines_var(FLOAT____00048);
constraint float_plus(FLOAT____00051, v[17], z) :: defines_var(FLOAT____00051);
constraint float_plus(FLOAT____00054, v[18], z) :: defines_var(FLOAT____00054);
constraint float_plus(FLOAT____00057, v[19], z) :: defines_var(FLOAT____00057);
solve  :: float_search([z, a, b], 0.0001, anti_first_fail, indomain_split, complete) minimize z;
